
Gurobi 11.0.1 (win64) logging started Thu May 16 19:39:30 2024

Set parameter LogFile to value "output/solver_log50.txt"
Gurobi Optimizer version 11.0.1 build v11.0.1rc0 (win64 - Windows 11.0 (22631.2))

CPU model: 11th Gen Intel(R) Core(TM) i7-1165G7 @ 2.80GHz, instruction set [SSE2|AVX|AVX2|AVX512]
Thread count: 4 physical cores, 8 logical processors, using up to 8 threads

Optimize a model with 7972 rows, 2282 columns and 158212 nonzeros
Model fingerprint: 0xc2f9a3e4
Variable types: 568 continuous, 1714 integer (1714 binary)
Coefficient statistics:
  Matrix range     [4e-01, 1e+05]
  Objective range  [1e+00, 1e+02]
  Bounds range     [1e+00, 1e+00]
  RHS range        [1e-02, 1e+05]

User MIP start produced solution with objective 97647.2 (0.03s)
User MIP start produced solution with objective 97647.2 (0.03s)
Loaded user MIP start with objective 97647.2

Presolve removed 1482 rows and 839 columns
Presolve time: 0.34s
Presolved: 6490 rows, 1443 columns, 126755 nonzeros
Variable types: 526 continuous, 917 integer (912 binary)

Root relaxation: objective 1.076066e+05, 2688 iterations, 0.30 seconds (0.36 work units)

    Nodes    |    Current Node    |     Objective Bounds      |     Work
 Expl Unexpl |  Obj  Depth IntInf | Incumbent    BestBd   Gap | It/Node Time

     0     0 107606.628    0   75 97647.1652 107606.628  10.2%     -    0s
     0     0 105352.907    0  140 97647.1652 105352.907  7.89%     -    2s
     0     0 104733.583    0  138 97647.1652 104733.583  7.26%     -    2s
     0     0 104708.949    0  133 97647.1652 104708.949  7.23%     -    2s
     0     0 104454.677    0  123 97647.1652 104454.677  6.97%     -    3s
     0     0 104454.677    0  120 97647.1652 104454.677  6.97%     -    3s
     0     0 104275.165    0  118 97647.1652 104275.165  6.79%     -    3s
     0     0 104037.217    0  124 97647.1652 104037.217  6.54%     -    4s
     0     0 104037.217    0  124 97647.1652 104037.217  6.54%     -    4s
     0     0 103832.871    0  145 97647.1652 103832.871  6.33%     -    4s
     0     0 103832.871    0  125 97647.1652 103832.871  6.33%     -    4s
     0     0 103814.312    0  127 97647.1652 103814.312  6.32%     -    4s
     0     0 103814.312    0  127 97647.1652 103814.312  6.32%     -    5s
     0     0 103814.312    0  125 97647.1652 103814.312  6.32%     -    5s
     0     0 103814.312    0  121 97647.1652 103814.312  6.32%     -    5s
     0     0 103814.312    0  124 97647.1652 103814.312  6.32%     -    5s
     0     0 103814.312    0  120 97647.1652 103814.312  6.32%     -    6s
     0     0 103814.312    0  130 97647.1652 103814.312  6.32%     -    6s
     0     0 103722.132    0  109 97647.1652 103722.132  6.22%     -    6s
     0     0 103722.132    0  118 97647.1652 103722.132  6.22%     -    6s
     0     0 103647.547    0   98 97647.1652 103647.547  6.14%     -    7s
     0     0 103614.285    0  107 97647.1652 103614.285  6.11%     -    7s
     0     0 103614.285    0   97 97647.1652 103614.285  6.11%     -    7s
     0     0 103614.285    0  104 97647.1652 103614.285  6.11%     -    7s
     0     0 103604.147    0  103 97647.1652 103604.147  6.10%     -    8s
     0     0 103604.147    0  106 97647.1652 103604.147  6.10%     -    8s
     0     0 103604.147    0  117 97647.1652 103604.147  6.10%     -    8s
     0     0 103237.136    0  132 97647.1652 103237.136  5.72%     -    8s
     0     0 103204.476    0  120 97647.1652 103204.476  5.69%     -    9s
     0     0 103204.476    0  125 97647.1652 103204.476  5.69%     -    9s
     0     0 103204.476    0  125 97647.1652 103204.476  5.69%     -    9s
     0     0 103204.476    0  136 97647.1652 103204.476  5.69%     -    9s
     0     0 103204.476    0  108 97647.1652 103204.476  5.69%     -   10s
     0     2 103204.476    0  100 97647.1652 103204.476  5.69%     -   10s
    50    31 102847.561   13  110 97647.1652 103201.968  5.69%   464   15s
   394   153 infeasible   49      97647.1652 103201.968  5.69%   151   20s
  1064   322 100938.802   13  116 97647.1652 102632.780  5.11%   108   25s
  1557   444 97970.4084   56  118 97647.1652 102515.969  4.99%   100   31s
  2171   615 98757.4659   53  108 97647.1652 102473.046  4.94%  98.0   38s
  2174   617 101887.570   26  112 97647.1652 102473.046  4.94%  97.9   41s
  2187   626 99542.2149   41  125 97647.1652 102473.046  4.94%  97.3   45s
  2195   631 100359.202   17  126 97647.1652 102473.046  4.94%  97.0   50s
  2213   647 102339.027   13  263 97647.1652 102473.046  4.94%   110   55s
  2283   685 99022.6245   23  130 97647.1652 102473.046  4.94%   125   60s

Cutting planes:
  Implied bound: 2
  Projected implied bound: 2
  MIR: 21
  Flow cover: 14
  RLT: 1
  Relax-and-lift: 8

Explored 2287 nodes (304219 simplex iterations) in 60.03 seconds (107.26 work units)
Thread count was 8 (of 8 available processors)

Solution count 2: 97647.2 97647.2 

Time limit reached
Best objective 9.764716517013e+04, best bound 1.024730455697e+05, gap 4.9422%
